&CONTROL
   calculation      = 'bands'
   verbosity        = 'high'
   tstress          = .true.
   tprnfor          = .true.
   outdir           = './'
   prefix           = 'mos2'
   pseudo_dir       = './pseudos/nc-sr-04_pw_standard/'
/
&SYSTEM
   nbnd             = 30
   ecutwfc          = 35
   occupations      = 'smearing'
   degauss          = 0.01
   smearing         = 'gaussian'
   ntyp             = 2
   nat              = 3
   ibrav            = 0
/
&ELECTRONS
   conv_thr         = 1e-08
   diagonalization  = 'david'
   diago_david_ndim = 4
   diago_full_acc   = .true.
/

ATOMIC_SPECIES
Mo 95.95 Mo.upf
S  32.06 S.upf

CELL_PARAMETERS angstrom
 3.12033078800000  0.00000000000000  0.00000000000000
-1.56016539500000  2.70228573300000  0.00000000000000
 0.00000000000000  0.00000000000000 25.00000000000000

ATOMIC_POSITIONS angstrom
Mo  0.0496714153 -0.0138264301  0.0647688538
S   0.1523029856  1.7781084829  1.5299509095
S   0.1579212816  1.8782672933 -1.6003120438

! Shifted 6x6x1 k-grid (dk1=+0.001) for the optical limit of the dielectric matrix
K_POINTS crystal
36
0.00100000  0.00000000  0.00000000  1.0
0.00100000  0.16666667  0.00000000  1.0
0.00100000  0.33333333  0.00000000  1.0
0.00100000  0.50000000  0.00000000  1.0
0.00100000  0.66666667  0.00000000  1.0
0.00100000  0.83333333  0.00000000  1.0
0.16766667  0.00000000  0.00000000  1.0
0.16766667  0.16666667  0.00000000  1.0
0.16766667  0.33333333  0.00000000  1.0
0.16766667  0.50000000  0.00000000  1.0
0.16766667  0.66666667  0.00000000  1.0
0.16766667  0.83333333  0.00000000  1.0
0.33433333  0.00000000  0.00000000  1.0
0.33433333  0.16666667  0.00000000  1.0
0.33433333  0.33333333  0.00000000  1.0
0.33433333  0.50000000  0.00000000  1.0
0.33433333  0.66666667  0.00000000  1.0
0.33433333  0.83333333  0.00000000  1.0
0.50100000  0.00000000  0.00000000  1.0
0.50100000  0.16666667  0.00000000  1.0
0.50100000  0.33333333  0.00000000  1.0
0.50100000  0.50000000  0.00000000  1.0
0.50100000  0.66666667  0.00000000  1.0
0.50100000  0.83333333  0.00000000  1.0
0.66766667  0.00000000  0.00000000  1.0
0.66766667  0.16666667  0.00000000  1.0
0.66766667  0.33333333  0.00000000  1.0
0.66766667  0.50000000  0.00000000  1.0
0.66766667  0.66666667  0.00000000  1.0
0.66766667  0.83333333  0.00000000  1.0
0.83433333  0.00000000  0.00000000  1.0
0.83433333  0.16666667  0.00000000  1.0
0.83433333  0.33333333  0.00000000  1.0
0.83433333  0.50000000  0.00000000  1.0
0.83433333  0.66666667  0.00000000  1.0
0.83433333  0.83333333  0.00000000  1.0
