&control
    calculation  = 'bands'
    prefix       = 'mos2'
    outdir       = './tmp'
    pseudo_dir   = './pseudos'
/
&system
    ibrav        = 4
    a            = 3.1604
    c            = 25.0
    nat          = 3
    ntyp         = 2
    ecutwfc      = 60.0
    ecutrho      = 240.0
    nbnd         = 30
/
&electrons
    conv_thr     = 1.0e-10
/
ATOMIC_SPECIES
  Mo  95.96  Mo.upf
  S   32.06  S.upf

ATOMIC_POSITIONS {angstrom}
  Mo   0.000000   0.000000   0.000000
  S    1.580200   0.912333   1.563408
  S    1.580200   0.912333  -1.563408

K_POINTS {crystal}
36
  0.000000  0.000000  0.000000  1.0
  0.083333  0.000000  0.000000  1.0
  0.166667  0.000000  0.000000  1.0
  0.250000  0.000000  0.000000  1.0
  0.333333  0.000000  0.000000  1.0
  0.416667  0.000000  0.000000  1.0
  0.083333  0.083333  0.000000  1.0
  0.166667  0.083333  0.000000  1.0
  0.250000  0.083333  0.000000  1.0
  0.333333  0.083333  0.000000  1.0
  0.416667  0.083333  0.000000  1.0
  0.500000  0.083333  0.000000  1.0
  0.166667  0.166667  0.000000  1.0
  0.250000  0.166667  0.000000  1.0
  0.333333  0.166667  0.000000  1.0
  0.416667  0.166667  0.000000  1.0
  0.500000  0.166667  0.000000  1.0
  0.250000  0.250000  0.000000  1.0
  0.333333  0.250000  0.000000  1.0
  0.416667  0.250000  0.000000  1.0
  0.500000  0.250000  0.000000  1.0
  0.333333  0.333333  0.000000  1.0
  0.416667  0.333333  0.000000  1.0
  0.500000  0.333333  0.000000  1.0
  0.416667  0.416667  0.000000  1.0
  0.500000  0.416667  0.000000  1.0
  0.500000  0.500000  0.000000  1.0
  0.583333  0.083333  0.000000  1.0
  0.583333  0.166667  0.000000  1.0
  0.583333  0.250000  0.000000  1.0
  0.583333  0.333333  0.000000  1.0
  0.583333  0.416667  0.000000  1.0
  0.583333  0.500000  0.000000  1.0
  0.583333  0.583333  0.000000  1.0
  0.666667  0.166667  0.000000  1.0
  0.666667  0.333333  0.000000  1.0
