&PROJWFC
   outdir          = './'
   prefix          = 'mos2'
   lsym            = .true.
   lwrite_overlaps = .true.
/
! Outputs (written to mos2.save/):
!   atomic_proj.xml  -> read by pre_proc/get_proj_for_graphs_and_eqp.py
!   projwfc.out      -> read by pre_proc/map_orbitals_atoms.py
